Route #1: 57 94 64 105 69 17 31 40 63 29
Route #2: 96 82 72 34 11 99 74
Route #3: 21 54 85 67 77 83 2 13
Route #4: 5 15 76 87 60 51 100
Route #5: 45 103 93 28 101 12 104 1
Route #6: 14 58 88 91 36 8 48 49
Route #7: 44 53 43 97 66 84 75 7
Route #8: 52 92 102 24 90 26 62
Route #9: 22 33
Route #10: 78 19 27 37 79 71 46 9
Route #11: 56 20 16 10 41 18 86
Route #12: 59 89 30 42 23 3 32 73 35
Route #13: 55 98 4 70 6 81 50 39
Route #14: 25 47 61 80 65 38 95 68
Cost 26383
